(push 1)
(assert (not (=> (and randomness-mapping-GBLG (= state-length-left-new (return-Left-gate-GBLG-state-length return-left-gate-GBLG)
)
 (= state-length-right-new (return-Right-simgate-GBLG-state-length return-right-simgate-GBLG)
)
 (invariant-GBLG state-left state-right state-length-left-old state-length-right-old return-left-gate-GBLG return-right-simgate-GBLG arg-GBLG-h arg-GBLG-l arg-GBLG-r arg-GBLG-op arg-GBLG-j)
)
 (right-all-aborts state-left state-right state-length-left-old state-length-right-old return-left-gate-GBLG return-right-simgate-GBLG arg-GBLG-h arg-GBLG-l arg-GBLG-r arg-GBLG-op arg-GBLG-j)
)
)
)
(check-sat)
(pop 1)
(push 1)
(assert (not (=> (and randomness-mapping-GBLG (= state-length-left-new (return-Left-gate-GBLG-state-length return-left-gate-GBLG)
)
 (= state-length-right-new (return-Right-simgate-GBLG-state-length return-right-simgate-GBLG)
)
 (invariant-GBLG state-left state-right state-length-left-old state-length-right-old return-left-gate-GBLG return-right-simgate-GBLG arg-GBLG-h arg-GBLG-l arg-GBLG-r arg-GBLG-op arg-GBLG-j)
)
 (right-all-aborts-inverse state-left state-right state-length-left-old state-length-right-old return-left-gate-GBLG return-right-simgate-GBLG arg-GBLG-h arg-GBLG-l arg-GBLG-r arg-GBLG-op arg-GBLG-j)
)
)
)
(check-sat)
(pop 1)
(push 1)
(assert (not (=> (and randomness-mapping-GBLG (= state-length-left-new (return-Left-gate-GBLG-state-length return-left-gate-GBLG)
)
 (= state-length-right-new (return-Right-simgate-GBLG-state-length return-right-simgate-GBLG)
)
 (invariant-GBLG state-left state-right state-length-left-old state-length-right-old return-left-gate-GBLG return-right-simgate-GBLG arg-GBLG-h arg-GBLG-l arg-GBLG-r arg-GBLG-op arg-GBLG-j)
)
 (left-all-aborts state-left state-right state-length-left-old state-length-right-old return-left-gate-GBLG return-right-simgate-GBLG arg-GBLG-h arg-GBLG-l arg-GBLG-r arg-GBLG-op arg-GBLG-j)
)
)
)
(check-sat)
(pop 1)
(push 1)
(assert (not (=> (and randomness-mapping-GBLG (= state-length-left-new (return-Left-gate-GBLG-state-length return-left-gate-GBLG)
)
 (= state-length-right-new (return-Right-simgate-GBLG-state-length return-right-simgate-GBLG)
)
 (invariant-GBLG state-left state-right state-length-left-old state-length-right-old return-left-gate-GBLG return-right-simgate-GBLG arg-GBLG-h arg-GBLG-l arg-GBLG-r arg-GBLG-op arg-GBLG-j)
)
 (left-inverse-all-aborts state-left state-right state-length-left-old state-length-right-old return-left-gate-GBLG return-right-simgate-GBLG arg-GBLG-h arg-GBLG-l arg-GBLG-r arg-GBLG-op arg-GBLG-j)
)
)
)
(check-sat)
(pop 1)
(push 1)
(assert (not (=> (and randomness-mapping-GBLG (= state-length-left-new (return-Left-gate-GBLG-state-length return-left-gate-GBLG)
)
 (= state-length-right-new (return-Right-simgate-GBLG-state-length return-right-simgate-GBLG)
)
 (invariant-GBLG state-left state-right state-length-left-old state-length-right-old return-left-gate-GBLG return-right-simgate-GBLG arg-GBLG-h arg-GBLG-l arg-GBLG-r arg-GBLG-op arg-GBLG-j)
 (left-all-aborts state-left state-right state-length-left-old state-length-right-old return-left-gate-GBLG return-right-simgate-GBLG arg-GBLG-h arg-GBLG-l arg-GBLG-r arg-GBLG-op arg-GBLG-j)
 (left-inverse-all-aborts state-left state-right state-length-left-old state-length-right-old return-left-gate-GBLG return-right-simgate-GBLG arg-GBLG-h arg-GBLG-l arg-GBLG-r arg-GBLG-op arg-GBLG-j)
 (right-all-aborts state-left state-right state-length-left-old state-length-right-old return-left-gate-GBLG return-right-simgate-GBLG arg-GBLG-h arg-GBLG-l arg-GBLG-r arg-GBLG-op arg-GBLG-j)
 (right-all-aborts-inverse state-left state-right state-length-left-old state-length-right-old return-left-gate-GBLG return-right-simgate-GBLG arg-GBLG-h arg-GBLG-l arg-GBLG-r arg-GBLG-op arg-GBLG-j)
)
 (aborts-right-left state-left state-right state-length-left-old state-length-right-old return-left-gate-GBLG return-right-simgate-GBLG arg-GBLG-h arg-GBLG-l arg-GBLG-r arg-GBLG-op arg-GBLG-j)
)
)
)
(check-sat)
(pop 1)
(push 1)
(assert (not (=> (and randomness-mapping-GBLG (= state-length-left-new (return-Left-gate-GBLG-state-length return-left-gate-GBLG)
)
 (= state-length-right-new (return-Right-simgate-GBLG-state-length return-right-simgate-GBLG)
)
 (invariant-GBLG state-left state-right state-length-left-old state-length-right-old return-left-gate-GBLG return-right-simgate-GBLG arg-GBLG-h arg-GBLG-l arg-GBLG-r arg-GBLG-op arg-GBLG-j)
 (left-all-aborts state-left state-right state-length-left-old state-length-right-old return-left-gate-GBLG return-right-simgate-GBLG arg-GBLG-h arg-GBLG-l arg-GBLG-r arg-GBLG-op arg-GBLG-j)
 (left-inverse-all-aborts state-left state-right state-length-left-old state-length-right-old return-left-gate-GBLG return-right-simgate-GBLG arg-GBLG-h arg-GBLG-l arg-GBLG-r arg-GBLG-op arg-GBLG-j)
 (right-all-aborts state-left state-right state-length-left-old state-length-right-old return-left-gate-GBLG return-right-simgate-GBLG arg-GBLG-h arg-GBLG-l arg-GBLG-r arg-GBLG-op arg-GBLG-j)
 (right-all-aborts-inverse state-left state-right state-length-left-old state-length-right-old return-left-gate-GBLG return-right-simgate-GBLG arg-GBLG-h arg-GBLG-l arg-GBLG-r arg-GBLG-op arg-GBLG-j)
)
 (aborts-left-right state-left state-right state-length-left-old state-length-right-old return-left-gate-GBLG return-right-simgate-GBLG arg-GBLG-h arg-GBLG-l arg-GBLG-r arg-GBLG-op arg-GBLG-j)
)
)
)
(check-sat)
(pop 1)
(push 1)
(assert (not (=> (and randomness-mapping-GBLG (= state-length-left-new (return-Left-gate-GBLG-state-length return-left-gate-GBLG)
)
 (= state-length-right-new (return-Right-simgate-GBLG-state-length return-right-simgate-GBLG)
)
 (invariant-GBLG state-left state-right state-length-left-old state-length-right-old return-left-gate-GBLG return-right-simgate-GBLG arg-GBLG-h arg-GBLG-l arg-GBLG-r arg-GBLG-op arg-GBLG-j)
 (aborts-right-left state-left state-right state-length-left-old state-length-right-old return-left-gate-GBLG return-right-simgate-GBLG arg-GBLG-h arg-GBLG-l arg-GBLG-r arg-GBLG-op arg-GBLG-j)
 (aborts-left-right state-left state-right state-length-left-old state-length-right-old return-left-gate-GBLG return-right-simgate-GBLG arg-GBLG-h arg-GBLG-l arg-GBLG-r arg-GBLG-op arg-GBLG-j)
)
 (aborts-equal state-left state-right state-length-left-old state-length-right-old return-left-gate-GBLG return-right-simgate-GBLG arg-GBLG-h arg-GBLG-l arg-GBLG-r arg-GBLG-op arg-GBLG-j)
)
)
)
(check-sat)
(pop 1)
(push 1)
(assert (not (=> (and randomness-mapping-GBLG (= state-length-left-new (return-Left-gate-GBLG-state-length return-left-gate-GBLG)
)
 (= state-length-right-new (return-Right-simgate-GBLG-state-length return-right-simgate-GBLG)
)
 (invariant-GBLG state-left state-right state-length-left-old state-length-right-old return-left-gate-GBLG return-right-simgate-GBLG arg-GBLG-h arg-GBLG-l arg-GBLG-r arg-GBLG-op arg-GBLG-j)
 (no-abort state-left state-right state-length-left-old state-length-right-old return-left-gate-GBLG return-right-simgate-GBLG arg-GBLG-h arg-GBLG-l arg-GBLG-r arg-GBLG-op arg-GBLG-j)
 (left-inverse-all-aborts state-left state-right state-length-left-old state-length-right-old return-left-gate-GBLG return-right-simgate-GBLG arg-GBLG-h arg-GBLG-l arg-GBLG-r arg-GBLG-op arg-GBLG-j)
 (right-all-aborts-inverse state-left state-right state-length-left-old state-length-right-old return-left-gate-GBLG return-right-simgate-GBLG arg-GBLG-h arg-GBLG-l arg-GBLG-r arg-GBLG-op arg-GBLG-j)
)
 (top-whole-left-neu-right-neu state-left state-right state-length-left-old state-length-right-old return-left-gate-GBLG return-right-simgate-GBLG arg-GBLG-h arg-GBLG-l arg-GBLG-r arg-GBLG-op arg-GBLG-j)
)
)
)
(check-sat)
(pop 1)
(push 1)
(assert (not (=> (and randomness-mapping-GBLG (= state-length-left-new (return-Left-gate-GBLG-state-length return-left-gate-GBLG)
)
 (= state-length-right-new (return-Right-simgate-GBLG-state-length return-right-simgate-GBLG)
)
 (invariant-GBLG state-left state-right state-length-left-old state-length-right-old return-left-gate-GBLG return-right-simgate-GBLG arg-GBLG-h arg-GBLG-l arg-GBLG-r arg-GBLG-op arg-GBLG-j)
 (no-abort state-left state-right state-length-left-old state-length-right-old return-left-gate-GBLG return-right-simgate-GBLG arg-GBLG-h arg-GBLG-l arg-GBLG-r arg-GBLG-op arg-GBLG-j)
 (left-all-aborts state-left state-right state-length-left-old state-length-right-old return-left-gate-GBLG return-right-simgate-GBLG arg-GBLG-h arg-GBLG-l arg-GBLG-r arg-GBLG-op arg-GBLG-j)
 (left-inverse-all-aborts state-left state-right state-length-left-old state-length-right-old return-left-gate-GBLG return-right-simgate-GBLG arg-GBLG-h arg-GBLG-l arg-GBLG-r arg-GBLG-op arg-GBLG-j)
)
 (bot-except-left-neu-left-alt state-left state-right state-length-left-old state-length-right-old return-left-gate-GBLG return-right-simgate-GBLG arg-GBLG-h arg-GBLG-l arg-GBLG-r arg-GBLG-op arg-GBLG-j)
)
)
)
(check-sat)
(pop 1)
(push 1)
(assert (not (=> (and randomness-mapping-GBLG (= state-length-left-new (return-Left-gate-GBLG-state-length return-left-gate-GBLG)
)
 (= state-length-right-new (return-Right-simgate-GBLG-state-length return-right-simgate-GBLG)
)
 (invariant-GBLG state-left state-right state-length-left-old state-length-right-old return-left-gate-GBLG return-right-simgate-GBLG arg-GBLG-h arg-GBLG-l arg-GBLG-r arg-GBLG-op arg-GBLG-j)
 (no-abort state-left state-right state-length-left-old state-length-right-old return-left-gate-GBLG return-right-simgate-GBLG arg-GBLG-h arg-GBLG-l arg-GBLG-r arg-GBLG-op arg-GBLG-j)
 (left-all-aborts state-left state-right state-length-left-old state-length-right-old return-left-gate-GBLG return-right-simgate-GBLG arg-GBLG-h arg-GBLG-l arg-GBLG-r arg-GBLG-op arg-GBLG-j)
 (left-inverse-all-aborts state-left state-right state-length-left-old state-length-right-old return-left-gate-GBLG return-right-simgate-GBLG arg-GBLG-h arg-GBLG-l arg-GBLG-r arg-GBLG-op arg-GBLG-j)
)
 (bot-table-left-2-left-neu state-left state-right state-length-left-old state-length-right-old return-left-gate-GBLG return-right-simgate-GBLG arg-GBLG-h arg-GBLG-l arg-GBLG-r arg-GBLG-op arg-GBLG-j)
)
)
)
(check-sat)
(pop 1)
(push 1)
(assert (not (=> (and randomness-mapping-GBLG (= state-length-left-new (return-Left-gate-GBLG-state-length return-left-gate-GBLG)
)
 (= state-length-right-new (return-Right-simgate-GBLG-state-length return-right-simgate-GBLG)
)
 (invariant-GBLG state-left state-right state-length-left-old state-length-right-old return-left-gate-GBLG return-right-simgate-GBLG arg-GBLG-h arg-GBLG-l arg-GBLG-r arg-GBLG-op arg-GBLG-j)
 (no-abort state-left state-right state-length-left-old state-length-right-old return-left-gate-GBLG return-right-simgate-GBLG arg-GBLG-h arg-GBLG-l arg-GBLG-r arg-GBLG-op arg-GBLG-j)
 (left-all-aborts state-left state-right state-length-left-old state-length-right-old return-left-gate-GBLG return-right-simgate-GBLG arg-GBLG-h arg-GBLG-l arg-GBLG-r arg-GBLG-op arg-GBLG-j)
 (left-inverse-all-aborts state-left state-right state-length-left-old state-length-right-old return-left-gate-GBLG return-right-simgate-GBLG arg-GBLG-h arg-GBLG-l arg-GBLG-r arg-GBLG-op arg-GBLG-j)
)
 (bot-Z-left-2 state-left state-right state-length-left-old state-length-right-old return-left-gate-GBLG return-right-simgate-GBLG arg-GBLG-h arg-GBLG-l arg-GBLG-r arg-GBLG-op arg-GBLG-j)
)
)
)
(check-sat)
(pop 1)
(push 1)
(assert (not (=> (and randomness-mapping-GBLG (= state-length-left-new (return-Left-gate-GBLG-state-length return-left-gate-GBLG)
)
 (= state-length-right-new (return-Right-simgate-GBLG-state-length return-right-simgate-GBLG)
)
 (invariant-GBLG state-left state-right state-length-left-old state-length-right-old return-left-gate-GBLG return-right-simgate-GBLG arg-GBLG-h arg-GBLG-l arg-GBLG-r arg-GBLG-op arg-GBLG-j)
)
 (bot-table-left-2-left-neu state-left state-right state-length-left-old state-length-right-old return-left-gate-GBLG return-right-simgate-GBLG arg-GBLG-h arg-GBLG-l arg-GBLG-r arg-GBLG-op arg-GBLG-j)
)
)
)
(check-sat)
(pop 1)
(push 1)
(assert (not (=> (and randomness-mapping-GBLG (= state-length-left-new (return-Left-gate-GBLG-state-length return-left-gate-GBLG)
)
 (= state-length-right-new (return-Right-simgate-GBLG-state-length return-right-simgate-GBLG)
)
 (invariant-GBLG state-left state-right state-length-left-old state-length-right-old return-left-gate-GBLG return-right-simgate-GBLG arg-GBLG-h arg-GBLG-l arg-GBLG-r arg-GBLG-op arg-GBLG-j)
)
 (bot-except-left-neu-left-alt state-left state-right state-length-left-old state-length-right-old return-left-gate-GBLG return-right-simgate-GBLG arg-GBLG-h arg-GBLG-l arg-GBLG-r arg-GBLG-op arg-GBLG-j)
)
)
)
(check-sat)
(pop 1)
(push 1)
(assert (not (=> (and randomness-mapping-GBLG (= state-length-left-new (return-Left-gate-GBLG-state-length return-left-gate-GBLG)
)
 (= state-length-right-new (return-Right-simgate-GBLG-state-length return-right-simgate-GBLG)
)
 (invariant-GBLG state-left state-right state-length-left-old state-length-right-old return-left-gate-GBLG return-right-simgate-GBLG arg-GBLG-h arg-GBLG-l arg-GBLG-r arg-GBLG-op arg-GBLG-j)
)
 (well-bot-left-NEU state-left state-right state-length-left-old state-length-right-old return-left-gate-GBLG return-right-simgate-GBLG arg-GBLG-h arg-GBLG-l arg-GBLG-r arg-GBLG-op arg-GBLG-j)
)
)
)
(check-sat)
(pop 1)
(push 1)
(assert (not (=> (and randomness-mapping-GBLG (= state-length-left-new (return-Left-gate-GBLG-state-length return-left-gate-GBLG)
)
 (= state-length-right-new (return-Right-simgate-GBLG-state-length return-right-simgate-GBLG)
)
 (invariant-GBLG state-left state-right state-length-left-old state-length-right-old return-left-gate-GBLG return-right-simgate-GBLG arg-GBLG-h arg-GBLG-l arg-GBLG-r arg-GBLG-op arg-GBLG-j)
)
 (top-whole-left-neu-right-neu state-left state-right state-length-left-old state-length-right-old return-left-gate-GBLG return-right-simgate-GBLG arg-GBLG-h arg-GBLG-l arg-GBLG-r arg-GBLG-op arg-GBLG-j)
)
)
)
(check-sat)
(pop 1)
(push 1)
(assert (not (=> (and randomness-mapping-GBLG (= state-length-left-new (return-Left-gate-GBLG-state-length return-left-gate-GBLG)
)
 (= state-length-right-new (return-Right-simgate-GBLG-state-length return-right-simgate-GBLG)
)
 (invariant-GBLG state-left state-right state-length-left-old state-length-right-old return-left-gate-GBLG return-right-simgate-GBLG arg-GBLG-h arg-GBLG-l arg-GBLG-r arg-GBLG-op arg-GBLG-j)
 (pre-right state-left state-right state-length-left-old state-length-right-old return-left-gate-GBLG return-right-simgate-GBLG arg-GBLG-h arg-GBLG-l arg-GBLG-r arg-GBLG-op arg-GBLG-j)
)
 (bot-table-right-alt-right-1 state-left state-right state-length-left-old state-length-right-old return-left-gate-GBLG return-right-simgate-GBLG arg-GBLG-h arg-GBLG-l arg-GBLG-r arg-GBLG-op arg-GBLG-j)
)
)
)
(check-sat)
(pop 1)
(push 1)
(assert (not (=> (and randomness-mapping-GBLG (= state-length-left-new (return-Left-gate-GBLG-state-length return-left-gate-GBLG)
)
 (= state-length-right-new (return-Right-simgate-GBLG-state-length return-right-simgate-GBLG)
)
 (invariant-GBLG state-left state-right state-length-left-old state-length-right-old return-left-gate-GBLG return-right-simgate-GBLG arg-GBLG-h arg-GBLG-l arg-GBLG-r arg-GBLG-op arg-GBLG-j)
 (pre-right state-left state-right state-length-left-old state-length-right-old return-left-gate-GBLG return-right-simgate-GBLG arg-GBLG-h arg-GBLG-l arg-GBLG-r arg-GBLG-op arg-GBLG-j)
)
 (well-bot-right-1 state-left state-right state-length-left-old state-length-right-old return-left-gate-GBLG return-right-simgate-GBLG arg-GBLG-h arg-GBLG-l arg-GBLG-r arg-GBLG-op arg-GBLG-j)
)
)
)
(check-sat)
(pop 1)
(push 1)
(assert (not (=> (and randomness-mapping-GBLG (= state-length-left-new (return-Left-gate-GBLG-state-length return-left-gate-GBLG)
)
 (= state-length-right-new (return-Right-simgate-GBLG-state-length return-right-simgate-GBLG)
)
 (invariant-GBLG state-left state-right state-length-left-old state-length-right-old return-left-gate-GBLG return-right-simgate-GBLG arg-GBLG-h arg-GBLG-l arg-GBLG-r arg-GBLG-op arg-GBLG-j)
 (pre-right state-left state-right state-length-left-old state-length-right-old return-left-gate-GBLG return-right-simgate-GBLG arg-GBLG-h arg-GBLG-l arg-GBLG-r arg-GBLG-op arg-GBLG-j)
)
 (well-bot-right-NEU state-left state-right state-length-left-old state-length-right-old return-left-gate-GBLG return-right-simgate-GBLG arg-GBLG-h arg-GBLG-l arg-GBLG-r arg-GBLG-op arg-GBLG-j)
)
)
)
(check-sat)
(pop 1)
(push 1)
(assert (not (=> (and randomness-mapping-GBLG (= state-length-left-new (return-Left-gate-GBLG-state-length return-left-gate-GBLG)
)
 (= state-length-right-new (return-Right-simgate-GBLG-state-length return-right-simgate-GBLG)
)
 (invariant-GBLG state-left state-right state-length-left-old state-length-right-old return-left-gate-GBLG return-right-simgate-GBLG arg-GBLG-h arg-GBLG-l arg-GBLG-r arg-GBLG-op arg-GBLG-j)
 (pre-right state-left state-right state-length-left-old state-length-right-old return-left-gate-GBLG return-right-simgate-GBLG arg-GBLG-h arg-GBLG-l arg-GBLG-r arg-GBLG-op arg-GBLG-j)
)
 (bot-except-right-neu-right-alt state-left state-right state-length-left-old state-length-right-old return-left-gate-GBLG return-right-simgate-GBLG arg-GBLG-h arg-GBLG-l arg-GBLG-r arg-GBLG-op arg-GBLG-j)
)
)
)
(check-sat)
(pop 1)
(push 1)
(assert (not (=> (and randomness-mapping-GBLG (= state-length-left-new (return-Left-gate-GBLG-state-length return-left-gate-GBLG)
)
 (= state-length-right-new (return-Right-simgate-GBLG-state-length return-right-simgate-GBLG)
)
 (invariant-GBLG state-left state-right state-length-left-old state-length-right-old return-left-gate-GBLG return-right-simgate-GBLG arg-GBLG-h arg-GBLG-l arg-GBLG-r arg-GBLG-op arg-GBLG-j)
 (lemma2-keys-1 state-left state-right state-length-left-old state-length-right-old return-left-gate-GBLG return-right-simgate-GBLG arg-GBLG-h arg-GBLG-l arg-GBLG-r arg-GBLG-op arg-GBLG-j)
)
 (lemma2-keys-2 state-left state-right state-length-left-old state-length-right-old return-left-gate-GBLG return-right-simgate-GBLG arg-GBLG-h arg-GBLG-l arg-GBLG-r arg-GBLG-op arg-GBLG-j)
)
)
)
(check-sat)
